c instance by G2
c solution = 11011
c Known solution cost is 278 
p cnf 5 30
w 97 91 29 19 42
2 1 -4 0
-4 -3 2 0
-5 2 -4 0
-2 4 -5 0
-3 4 2 0
1 -5 -4 0
-1 3 5 0
2 -4 -1 0
-3 -2 -5 0
4 3 5 0
-3 5 1 0
-4 -3 1 0
4 -1 -3 0
3 5 -4 0
5 1 4 0
2 -5 -1 0
-1 -2 -3 0
-4 5 3 0
-3 -1 -2 0
-3 1 -5 0
3 -5 1 0
4 3 -2 0
4 5 3 0
-5 2 1 0
1 2 -4 0
3 5 -1 0
4 5 2 0
1 -2 4 0
2 -5 -4 0
1 -2 5 0
